NAME /Users/henri/Research/solvers/instances/idol-instances/robust/collection/spp_dkp_Lefebvre_et_al_2026/shortest_path_4_6/uncertainty_sets/discrete_knapsack
ROWS
 N  OBJ
 L  primal_lower
COLUMNS
    MARKER    'MARKER'                 'INTORG'
    y[0,1]     OBJ        0
    y[0,1]     primal_lower -0.15
    y[0,2]     OBJ        0
    y[0,2]     primal_lower -7.4
    y[0,3]     OBJ        0
    y[0,3]     primal_lower -2.36
    y[1,0]     OBJ        0
    y[1,0]     primal_lower -2.48
    y[1,3]     OBJ        0
    y[1,3]     primal_lower -6.57
    y[2,0]     OBJ        0
    y[2,0]     primal_lower -2.69
    y[2,3]     OBJ        0
    y[2,3]     primal_lower -7.18
    y[3,0]     OBJ        0
    y[3,0]     primal_lower -3.71
    y[3,1]     OBJ        0
    y[3,1]     primal_lower -4.55
    y[3,2]     OBJ        0
    y[3,2]     primal_lower -2.96
    u[0,1]     OBJ        0
    u[0,1]     primal_lower 51
    u[0,2]     OBJ        0
    u[0,2]     primal_lower 25
    u[0,3]     OBJ        0
    u[0,3]     primal_lower 23
    u[1,0]     OBJ        0
    u[1,0]     primal_lower 10
    u[1,3]     OBJ        0
    u[1,3]     primal_lower 33
    u[2,0]     OBJ        0
    u[2,0]     primal_lower 67
    u[2,3]     OBJ        0
    u[2,3]     primal_lower 78
    u[3,0]     OBJ        0
    u[3,0]     primal_lower 75
    u[3,1]     OBJ        0
    u[3,1]     primal_lower 83
    u[3,2]     OBJ        0
    u[3,2]     primal_lower 33
    MARKER    'MARKER'                 'INTEND'
RHS
    RHS       primal_lower 83
BOUNDS
 LI BND       y[0,1]     0
 UI BND       y[0,1]     1
 LI BND       y[0,2]     0
 UI BND       y[0,2]     1
 LI BND       y[0,3]     0
 UI BND       y[0,3]     1
 LI BND       y[1,0]     0
 UI BND       y[1,0]     1
 LI BND       y[1,3]     0
 UI BND       y[1,3]     1
 LI BND       y[2,0]     0
 UI BND       y[2,0]     1
 LI BND       y[2,3]     0
 UI BND       y[2,3]     1
 LI BND       y[3,0]     0
 UI BND       y[3,0]     1
 LI BND       y[3,1]     0
 UI BND       y[3,1]     1
 LI BND       y[3,2]     0
 UI BND       y[3,2]     1
 LI BND       u[0,1]     0
 UI BND       u[0,1]     1
 LI BND       u[0,2]     0
 UI BND       u[0,2]     1
 LI BND       u[0,3]     0
 UI BND       u[0,3]     1
 LI BND       u[1,0]     0
 UI BND       u[1,0]     1
 LI BND       u[1,3]     0
 UI BND       u[1,3]     1
 LI BND       u[2,0]     0
 UI BND       u[2,0]     1
 LI BND       u[2,3]     0
 UI BND       u[2,3]     1
 LI BND       u[3,0]     0
 UI BND       u[3,0]     1
 LI BND       u[3,1]     0
 UI BND       u[3,1]     1
 LI BND       u[3,2]     0
 UI BND       u[3,2]     1
ENDATA
